Results/Experiment 1 Results/Existing Benchmark/RES_20/i-20-100-13.txt
solutions: 1 nodes: 2  modelTime: 122  solveTime: 11  totalTime: 135  modelSize: 7358  readTime: 2 matchingSize: 10
