Results/Experiment 2 Results/Existing Benchmark/i-20-100-13.lp
clingo version 5.4.0
Reading from tempSRTISolver.lp ...
Solving...
Answer: 1
matched(3,2) matched(2,3) matched(15,4) matched(19,5) matched(13,6) matched(1,7) matched(18,8) matched(12,9) matched(11,10) matched(10,11) matched(9,12) matched(6,13) matched(20,14) matched(4,15) matched(17,16) matched(16,17) matched(8,18) matched(5,19) matched(14,20) matched(7,1)
Optimization: 76
OPTIMUM FOUND

Models       : 1
  Optimum    : yes
Optimization : 76
Calls        : 1
Time         : 0.055s (Solving: 0.00s 1st Model: 0.00s Unsat: 0.00s)
CPU Time     : 0.055s
